% demand
num_movements = 44;
loading_factor = [1100, 1500, 1600, 1050, 1800, 1150, 1350, 1200, 1050, 1450, 2000, 1600, 1250, 1950, 1600, 1050, 1700, 1800, 1000, 1550, 1350, 1300, 1700, 1200, 2000, 1800, 1100, 1300, 1850, 850, 1250, 1500, 1650, 1100, 1250, 800, 800, 1500, 800, 1500, 1400, 1200, 1050, 1000];
pickup_time = [0, 0, 1, 1, 2, 2, 2, 2, 2, 2, 4, 4, 5, 5, 5, 5, 5, 5, 5, 7, 7, 8, 8, 8, 8, 8, 8, 8, 10, 10, 10, 10, 10, 10, 11, 11, 11, 11, 12, 12, 12, 12, 12, 12];
delivery_time = [1, 1, 5, 5, 4, 5, 5, 5, 5, 4, 5, 5, 7, 7, 7, 7, 7, 7, 7, 8, 8, 9, 9, 9, 9, 9, 9, 9, 12, 11, 12, 13, 13, 11, 12, 12, 13, 12, 13, 13, 13, 13, 13, 13];

% transporter definition
total_capacity = 11000;
num_decks = 4;
capacity = [3000, 3000, 1000, 4000];

% ways out of decks
num_ways_out = 2;
paths_out = array3d(decks, ways_out, decks, [
% ways out of deck d1
2, 4, 0, 0, 3, 4, 0, 0, 

% ways out of deck d2
4, 0, 0, 0, 0, 0, 0, 0,	

% ways out of deck d3
4, 0, 0, 0, 0, 0, 0, 0,	

% ways out of deck d4
0, 0, 0, 0,	0, 0, 0, 0,	

]);

